SCIP Status        : problem creation / modification
Total Time         :       0.07
  reading          :       0.07
Original Problem   :
  Problem name     : main4.zpl
  Variables        : 6060 (6060 binary, 0 integer, 0 implicit integer, 0 continuous)
  Constraints      : 0 initial, 6160 maximal
  Objective        : minimize, 6060 non-zeros (abs.min = 0.00272, abs.max = 5700)
